c numero: 61
c nombre: n-50-d-0.1
c densidad: 0.1
p edges 50 127
e 1 6
e 1 21
e 1 25
e 1 26
e 1 39
e 1 46
e 2 11
e 2 29
e 2 48
e 2 50
e 3 31
e 3 34
e 3 36
e 3 45
e 4 8
e 4 24
e 4 45
e 4 49
e 5 15
e 5 17
e 5 27
e 5 28
e 5 31
e 5 34
e 5 40
e 6 9
e 6 24
e 6 27
e 6 41
e 7 17
e 7 21
e 7 23
e 7 30
e 7 50
e 8 23
e 8 35
e 9 35
e 9 40
e 9 42
e 10 39
e 11 17
e 11 27
e 12 34
e 12 43
e 13 19
e 13 20
e 13 36
e 13 42
e 13 49
e 14 24
e 14 49
e 15 25
e 15 26
e 16 29
e 16 30
e 16 31
e 16 36
e 16 37
e 16 39
e 16 41
e 17 23
e 17 25
e 17 30
e 17 31
e 17 34
e 17 35
e 17 37
e 17 40
e 17 44
e 18 25
e 18 37
e 19 34
e 19 37
e 20 30
e 20 31
e 20 45
e 20 47
e 21 24
e 21 26
e 21 30
e 21 33
e 21 43
e 21 45
e 22 42
e 23 25
e 23 33
e 23 40
e 24 28
e 24 29
e 24 30
e 24 38
e 24 45
e 26 32
e 26 39
e 27 28
e 27 29
e 27 38
e 27 44
e 27 46
e 27 47
e 28 32
e 28 41
e 29 42
e 30 34
e 30 40
e 30 44
e 31 32
e 31 35
e 31 37
e 32 40
e 33 39
e 33 40
e 33 41
e 34 48
e 35 37
e 35 40
e 35 46
e 36 37
e 36 43
e 37 42
e 37 46
e 40 45
e 41 48
e 42 43
e 42 47
e 43 44
e 48 49
